c cnf/enc1_burglary_cachet.cnf
c bif/bulglary.bif
c
p cnf 18 46
w 1 1 1
w 2 1 1
w 3 0.7 1
w 4 0.3 1
w 5 1 1
w 6 1 1
w 7 0.2 1
w 8 0.8 1
w 9 1 1
w 10 1 1
w 11 0.9 1
w 12 0.8 1
w 13 0.1 1
w 14 0.0 1
w 15 0.1 1
w 16 0.2 1
w 17 0.9 1
w 18 1.0 1
1 2 0
-1 -2 0
-1 3 0
-3 1 0
-2 4 0
-4 2 0
5 6 0
-5 -6 0
-5 7 0
-7 5 0
-6 8 0
-8 6 0
9 10 0
-9 -10 0
-9 -1 -5 11 0
-11 9 0
-11 1 0
-11 5 0
-9 -1 -6 12 0
-12 9 0
-12 1 0
-12 6 0
-9 -2 -5 13 0
-13 9 0
-13 2 0
-13 5 0
-9 -2 -6 14 0
-14 9 0
-14 2 0
-14 6 0
-10 -1 -5 15 0
-15 10 0
-15 1 0
-15 5 0
-10 -1 -6 16 0
-16 10 0
-16 1 0
-16 6 0
-10 -2 -5 17 0
-17 10 0
-17 2 0
-17 5 0
-10 -2 -6 18 0
-18 10 0
-18 2 0
-18 6 0
